outputs/case_369.model.txt
order_director_supervisor_dismissal_or_suspension = False
order_or_prohibit_asset_disposition = False
suspend_partial_business = False
restrict_investment = False
other_necessary_measures = False
bank_violation_flag = True
order_branch_closure = False
revoke_statutory_meeting_resolution = False
order_provision_reserve_fund = True
order_manager_staff_dismissal_or_suspension = False
correction_issued = True
improvement_deadline_set = True
business_guidance_required = False
company_registry_notified = False
notify_company_registry = True
correction_ordered = True
penalties_applied = True
penalty = False
violation_occurred = True
business_guidance_needed = False